db/inputs/1865928553100792207625736721486322998.smt2
(set-logic QF_FP)
(declare-const x0 (_ FloatingPoint 11 53))
(declare-const x1 (_ FloatingPoint 11 53))
(declare-const x2 (_ FloatingPoint 11 53))
(declare-const x3 (_ FloatingPoint 11 53))
(declare-const x4 (_ FloatingPoint 11 53))
(declare-const x5 (_ FloatingPoint 11 53))
(declare-const x6 (_ FloatingPoint 11 53))
(declare-const x7 (_ FloatingPoint 11 53))
(declare-const x8 (_ FloatingPoint 11 53))
(declare-const x9 (_ FloatingPoint 11 53))
(declare-const x10 (_ FloatingPoint 11 53))
(declare-const x11 (_ FloatingPoint 11 53))
(declare-const x12 (_ FloatingPoint 11 53))
(declare-const x13 (_ FloatingPoint 11 53))
(declare-const x14 (_ FloatingPoint 11 53))
(declare-const x15 (_ FloatingPoint 11 53))
(declare-const x16 (_ FloatingPoint 11 53))
(declare-const x17 (_ FloatingPoint 11 53))
(declare-const x18 (_ FloatingPoint 11 53))
(declare-const x19 (_ FloatingPoint 11 53))
(assert (fp.eq (fp.sub RNE x3 x15) (fp.div RNE x4 x15)))
(assert (fp.eq (fp.div RNE x13 x17) (fp.div RNE x14 x18)))
(assert (fp.geq (fp.sub RNE x0 x6) (fp.sub RNE x4 x11)))
(assert (fp.gt (fp.mul RNE x7 x2) (fp.div RNE x4 x12)))
(assert (fp.eq (fp.neg x15) (fp.sub RNE x3 x15)))
(assert (fp.geq (fp.neg x5) (fp.sub RNE x0 x8)))
(assert (fp.lt (fp.sub RNE x5 x18) (fp.div RNE x15 x19)))
(assert (fp.lt (fp.neg x13) (fp.sub RNE x8 x12)))
(assert (fp.gt (fp.add RNE x6 x7) (fp.mul RNE x5 x18)))
(assert (fp.gt (fp.neg x12) (fp.neg x10)))
(assert (fp.eq (fp.div RNE x19 x18) (fp.mul RNE x15 x3)))
(assert (fp.leq (fp.div RNE x13 x3) (fp.mul RNE x14 x16)))
(assert (fp.gt (fp.div RNE x17 x5) (fp.mul RNE x13 x17)))
(check-sat)
