db/data/1865928553100792207625736721486322998.z3.out
-------------------
2500.259990893
